
--- Job bchfcnet.gms Start 02/08/22 17:26:33 34.3.0 rac355f3 WEX-WEI x86 64bit/MS Windows
--- Applying:
    C:\GAMS\34\gmsprmNT.txt
--- GAMS Parameters defined
    Input C:\Users\dekhi\Desktop\gamsworld\FCNetLib\test\bchfcnet.gms
    PageSize 0
    ScrDir C:\Users\dekhi\Desktop\gamsworld\FCNetLib\test\225a\
    SysDir C:\GAMS\34\
    LogOption 3
    ErrMsg 1
    ErrorLog 99
    IDE 1
    ResLim 3600
    LstTitleLeftAligned 1
Licensee: Eval License                                   S211214|0002AW-GEN
          Ostfalia Hochschule fuer angewandte Wissenschaften        DCE1645
          C:\Users\dekhi\Documents\GAMS\gamslice.txt
          License Admin: Mohamed Ali Dekhil, dekhil.medali@gmail.com       
          Evaluation license: Not for commercial or production use
GAMS 34.3.0   Copyright (C) 1987-2021 GAMS Development. All rights reserved
--- Starting compilation
--- bchfcnet.gms(34) 2 Mb
--- . decl.gms(15) 2 Mb
--- bchfcnet.gms(38) 2 Mb
--- . l451x885b.inc(1827) 3 Mb
--- bchfcnet.gms(67) 3 Mb
--- . equs.gms(20) 3 Mb
--- bchfcnet.gms(97) 3 Mb
--- call rm -f bchout_i.gdx startcut.txt startheur.txt cuthist.gdx agap.txt rgap.txt cntfail.txt
--- bchfcnet.gms(118) 3 Mb
--- Starting execution: elapsed 0:00:00.100
--- bchfcnet.gms(1885) 4 Mb
--- GDX File (execute_unload) C:\Users\dekhi\Desktop\gamsworld\FCNetLib\test\net.gdx
--- bchfcnet.gms(1976) 4 Mb
--- GDXin=C:\Users\dekhi\Desktop\gamsworld\FCNetLib\test\points\l451x885b.gdx
--- GDX File (execute_load) C:\Users\dekhi\Desktop\gamsworld\FCNetLib\test\points\l451x885b.gdx
--- Generating MIP model master
--- bchfcnet.gms(1980) 5 Mb
---   1,337 rows  1,771 columns  4,876 non-zeroes
---   885 discrete-columns
--- Executing CPLEX (Solvelink=2): elapsed 0:00:00.166

IBM ILOG CPLEX   34.3.0 rac355f3 Released Feb 25, 2021 WEI x86 64bit/MS Window

--- GAMS/Cplex Link licensed for continuous and discrete problems.

Reading parameter(s) from "C:\Users\dekhi\Desktop\gamsworld\FCNetLib\test\cplex.op2"
>>  mipstart 1
Finished reading from "C:\Users\dekhi\Desktop\gamsworld\FCNetLib\test\cplex.op2"

--- Space for names approximately 0.07 Mb
--- Use option 'names no' to turn use of names off
--- GMO memory 0.86 Mb (peak 0.87 Mb)
--- Dictionary memory 0.00 Mb
--- Cplex 20.1.0.0 link memory 0.05 Mb (peak 0.20 Mb)
--- Starting Cplex

Version identifier: 20.1.0.0 | 2020-11-10 | 9bedb6d68
CPXPARAM_Threads                                 1
CPXPARAM_MIP_Display                             4
CPXPARAM_TimeLimit                               3600
CPXPARAM_MIP_Tolerances_AbsMIPGap                0
CPXPARAM_MIP_Tolerances_MIPGap                   0
Generic callback                                 0x50
Processing 1 MIP starts.
MIP start 'm1' defined solution with objective 560847.0000.
1 of 1 MIP starts provided solutions.
MIP start 'm1' defined initial solution with objective 560847.0000.
Tried aggregator 2 times.
MIP Presolve eliminated 450 rows and 451 columns.
MIP Presolve modified 106 coefficients.
Aggregator did 26 substitutions.
Reduced MIP has 860 rows, 1294 columns, and 2598 nonzeros.
Reduced MIP has 435 binaries, 0 generals, 0 SOSs, and 0 indicators.
Presolve time = 0.00 sec. (5.80 ticks)
Probing time = 0.00 sec. (0.22 ticks)
Tried aggregator 1 time.
Detecting symmetries...
Reduced MIP has 860 rows, 1294 columns, and 2598 nonzeros.
Reduced MIP has 435 binaries, 0 generals, 0 SOSs, and 0 indicators.
Presolve time = 0.00 sec. (4.30 ticks)
Probing time = 0.00 sec. (0.21 ticks)
MIP emphasis: balance optimality and feasibility.
MIP search method: dynamic search.
Parallel mode: none, using 1 thread.
Tried aggregator 1 time.
LP Presolve eliminated 425 rows and 428 columns.
Aggregator did 1 substitutions.
Reduced LP has 434 rows, 865 columns, and 1740 nonzeros.
Presolve time = 0.00 sec. (0.59 ticks)
Initializing dual steep norms . . .

Iteration log . . .
Iteration:     1   Scaled dual infeas =          1180.000000
Iteration:     6   Dual objective     =         36345.944882
Iteration:    67   Dual objective     =        121169.733850
Iteration:   129   Dual objective     =        204894.728633
Iteration:   191   Dual objective     =        272028.710962
Iteration:   253   Dual objective     =        339841.204216
Iteration:   315   Dual objective     =        418141.124403
Iteration:   405   Dual objective     =        513252.580295
Initializing dual steep norms . . .
Root relaxation solution time = 0.00 sec. (6.71 ticks)

        Nodes                                         Cuts/
   Node  Left     Objective  IInf  Best Integer    Best Bound    ItCnt     Gap

*     0+    0                       560847.0000    17197.0000            96.93%
Found incumbent of value 560847.000000 after 0.01 sec. (20.63 ticks)
      0     0   530267.0298   138   560847.0000   530267.0298      442    5.45%
      0     0   552342.6488   138   560847.0000     Cuts: 233      581    1.52%
      0     0   557121.0843   138   560847.0000     Cuts: 214      669    0.66%
      0     0   558063.3972    75   560847.0000     Cuts: 139      720    0.50%
      0     0   558901.7180   137   560847.0000      Cuts: 86      794    0.35%
      0     0   559152.5879    86   560847.0000     Cuts: 132      834    0.30%
Detecting symmetries...
      0     0   559250.7467    64   560847.0000     Cuts: 113      854    0.28%
      0     0   559277.1794    59   560847.0000      Cuts: 21      871    0.28%
      0     0   559304.4138    69   560847.0000      Cuts: 16      878    0.28%
Detecting symmetries...
      0     2   559304.4138    69   560847.0000   559339.3611      878    0.27%
Elapsed time = 0.19 sec. (200.07 ticks, tree = 0.01 MB, solutions = 1)
    207    49        cutoff         560847.0000   560579.0126     3642    0.05%
                                                     Cuts: 40                  

Implied bound cuts applied:  31
Flow cuts applied:  78
Mixed integer rounding cuts applied:  149
Flow path cuts applied:  16
Multi commodity flow cuts applied:  1
Lift and project cuts applied:  26
Gomory fractional cuts applied:  109

Root node processing (before b&c):
  Real time             =    0.19 sec. (200.08 ticks)
Sequential b&c:
  Real time             =    0.27 sec. (288.39 ticks)
                          ------------
Total (root+branch&cut) =    0.45 sec. (488.47 ticks)

--- MIP status (101): integer optimal solution.
--- Cplex Time: 0.45sec (det. 488.47 ticks)

--- Fixing integer variables and solving final LP...

Version identifier: 20.1.0.0 | 2020-11-10 | 9bedb6d68
CPXPARAM_Advance                                 2
CPXPARAM_Threads                                 1
CPXPARAM_MIP_Display                             4
CPXPARAM_TimeLimit                               3600
CPXPARAM_MIP_Tolerances_AbsMIPGap                0
CPXPARAM_MIP_Tolerances_MIPGap                   0
Tried aggregator 1 time.
LP Presolve eliminated 965 rows and 1315 columns.
Aggregator did 282 substitutions.
Reduced LP has 89 rows, 174 columns, and 329 nonzeros.
Presolve time = 0.00 sec. (1.07 ticks)

--- Fixed MIP status (1): optimal.
--- Cplex Time: 0.00sec (det. 2.41 ticks)


Proven optimal solution
MIP Solution:       560847.000000    (4190 iterations, 282 nodes)
Final Solve:        560847.000000    (0 iterations)

Best possible:      560847.000000
Absolute gap:            0.000000
Relative gap:            0.000000

--- Reading solution for model master
*** Status: Normal completion
--- Job bchfcnet.gms Stop 02/08/22 17:26:34 elapsed 0:00:00.668
